(define-fun
  h3
  ((x Int)) Int
  (- (- (- 2 (mod (+ 1 x) (+ 2 2))) 2) (div (div (+ 1 x) 2) 2)))
(define-fun
  h1
  ((x Int)) Int x)
(define-fun
  g2
  ((x Int)) Int x)
(define-fun
  f3
  ((x Int)) Int (* x x))
(define-fun-rec
  u3
  ((x Int) (y Int)) Int (ite (<= x 0) y (f3 (u3 (- x 1) y))))
(define-fun
  v3
  ((x Int)) Int (u3 1 (h3 x)))
(define-fun
  f2
  ((x Int) (y Int)) Int (- y x))
(define-fun-rec
  u2
  ((x Int) (y Int)) Int (ite (<= x 0) y (f2 (u2 (- x 1) y) x)))
(define-fun
  v2
  ((x Int)) Int (u2 x 1))
(define-fun-rec
  u1
  ((x Int) (y Int)) Int (ite (<= x 0) y (v2 (u1 (- x 1) y))))
(define-fun
  v1
  ((x Int)) Int (u1 2 x))
(define-fun
  h0
  ((x Int)) Int (+ 1 (v1 x)))
(define-fun
  f0
  ((x Int)) Int (* x x))
(define-fun-rec
  u0
  ((x Int) (y Int)) Int (ite (<= x 0) y (f0 (u0 (- x 1) y))))
(define-fun
  v0
  ((x Int)) Int (u0 1 (h0 x)))
(assert-not
  (forall ((c Int)) (or (not (>= c 0)) (= (v0 c) (v3 c)))))
